100 100
7857 28
2768 79
2414 80
8434 53
1636 89
6512 32
3616 19
5755 48
419 70
4912 52
8370 12
7881 57
3928 12
4261 85
9811 60
7207 67
1152 38
7006 52
1690 60
3686 33
4536 17
8122 44
5518 2
5317 44
4219 37
4662 74
8459 34
3362 37
4056 95
7652 99
2543 21
2833 77
3037 40
6014 16
3380 48
6471 82
8899 82
8642 16
56 75
3310 35
9457 58
9367 87
2550 13
1999 7
7051 58
8108 65
9776 78
3172 67
8578 95
1964 54
6625 8
5932 21
8780 21
2521 55
8460 35
3217 23
6646 10
923 76
9733 99
4631 16
1588 54
6961 23
3080 89
6372 72
5236 39
124 24
6021 11
6187 5
1246 14
7898 1
57 68
2091 9
6640 5
7004 16
3441 36
8664 92
3455 97
8075 16
1483 75
9699 92
2037 39
6324 38
9135 30
4808 23
1364 32
2653 32
2948 93
4381 55
1305 64
2993 52
3588 6
5547 29
7569 22
5830 63
6696 37
34 87
6906 56
9746 64
738 12
824 52
